Total weight: 1538.4614266864573
Route 1: 0 92 95 83 57 11 14 15 16 47 45 5 8 7 73 12 9 10 78 79 6 46 4 3 1 43 35 37 54 68 55 13 17 60 100 70 0 
Route 2: 0 72 39 36 71 31 29 27 28 30 33 62 63 85 18 23 21 19 41 38 40 32 26 34 50 48 25 77 58 74 0 
Route 3: 0 2 44 42 61 65 52 99 82 90 81 94 67 84 51 49 20 22 24 66 56 91 93 96 80 0 
Route 4: 0 64 76 89 86 75 87 59 97 0 
Route 5: 0 69 98 53 88 0 
